
language ESSENCE' 1.0

letting fixed be 
[
    [0,0,0,0,0,0,0,0,0],
    [0,1,7,0,2,0,8,0,3],
    [0,0,3,0,0,0,2,0,4],
    [0,8,4,0,5,3,7,0,6],
    [0,0,0,0,0,0,0,0,0],
    [0,7,2,0,1,0,0,0,5],
    [0,4,8,0,7,1,5,0,2],
    [0,3,5,0,4,0,6,0,1],
    [0,0,0,0,0,0,0,0,0]
]